Route #1: 3 77 63
Route #2: 21 56 94 80
Route #3: 69 16 55 76
Route #4: 89 98 99 62 71
Route #5: 23 61 100
Route #6: 93 75
Route #7: 20 41 22 15
Route #8: 35 46 31
Route #9: 44 67 88 40
Route #10: 7 2 45 43 29 36 72 57
Route #11: 14 49 6 37 87
Route #12: 8 17
Route #13: 59 60 82
Route #14: 18 10 39
Route #15: 86 9 92
Route #16: 52 91 50
Route #17: 30 85 11 79
Route #18: 58 12 5
Route #19: 4 13 74
Route #20: 81 51 83
Route #21: 19 97 27
Route #22: 34 64 96 48 26 47 38
Route #23: 32 33 53 73 95 24
Route #24: 54 70 1
Route #25: 66 84 90 68
Route #26: 28 42 78 65 25
Cost 27591.0000
Time 16.0003